(set-logic ALL)
(declare-fun var0 () String)
(assert (str.in_re var0 (re.++ (re.* (re.+ (str.to_re "0"))) (re.++ (re.* (re.+ (str.to_re "11"))) (re.++ (re.union (re.* (str.to_re "222")) (re.* (str.to_re "3"))) (re.++ (re.* (re.union (str.to_re "444") (str.to_re "555"))) (re.++ (re.* (re.+ (str.to_re "6"))) (re.++ (re.+ (re.union (str.to_re "7") (str.to_re "88"))) (re.++ (re.+ (re.* (str.to_re "999"))) (re.++ (re.union (re.union (str.to_re "aaa") (str.to_re "bb")) (re.union (str.to_re "cc") (str.to_re "d"))) (re.++ (re.* (re.* (str.to_re "ee"))) (re.++ (re.union (re.+ (str.to_re "fff")) (re.+ (str.to_re "gg"))) (re.++ (re.* (re.union (str.to_re "h") (str.to_re "ii"))) (re.++ (re.union (re.* (str.to_re "jj")) (re.* (str.to_re "kk"))) (re.++ (re.+ (re.* (str.to_re "ll"))) (re.++ (re.union (re.* (str.to_re "mm")) (re.* (str.to_re "n"))) (re.++ (re.* (re.+ (str.to_re "ooo"))) (re.++ (re.+ (re.union (str.to_re "pp") (str.to_re "qqq"))) (re.++ (re.* (re.union (str.to_re "r") (str.to_re "s"))) (re.++ (re.* (re.+ (str.to_re "ttt"))) (re.* (re.union (str.to_re "uuu") (str.to_re "v")))))))))))))))))))))))
(check-sat)